(set-logic HORN)
(declare-fun state (Int (Array Int Int) (Array Int Int) (Array Int Int) (Array Int Int) Int Int (Array Int Int) (Array Int Int) Int Int Int Int Int Int Int Int Int Int Int Int Int Int Int Int Int Int Int Int Int Int Int Int Int Int Int Bool Bool Bool Bool Bool (Array Int Int)) Bool)
(assert (forall ((|A_27| Int) (|B_27| (Array Int Int)) (|C_27| (Array Int Int)) (|D_27| (Array Int Int)) (|E_27| (Array Int Int)) (|F_27| Int) (|G_27| Int) (|H_27| (Array Int Int)) (|I_27| (Array Int Int)) (|J_27| Int) (|K_27| Int) (|L_27| Int) (|M_27| Int) (|N_27| Int) (|O_27| Int) (|P_27| Int) (|Q_27| Int) (|R_27| Int) (|S_27| Int) (|T_27| Int) (|U_27| Int) (|V_27| Int) (|W_27| Int) (|X_27| Int) (|Y_27| Int) (|Z_27| Int) (|A1_27| Int) (|B1_27| Int) (|C1_27| Int) (|D1_27| Int) (|E1_27| Int) (|F1_27| Int) (|G1_27| Int) (|H1_27| Int) (|I1_27| Int) (|J1_27| Int) (|L1_14| Bool) (|.loc.5| Bool) (|.loc.6| Bool) (|.loc.7| Bool) (|.loc.8| Bool) (|L1_0| (Array Int Int)) (|.x.988| Int) (|.x.986| (Array Int Int)) (|.x.984| Int) (|.x.982| (Array Int Int)) (|.x.978| Int) (|.x.980| (Array Int Int)) (|.x.979| (Array Int Int)) (|K1_27| Bool) (|.x.990| Int) (|.x.991| Int) (|.x.999| Int) (|.x.1000| Int) (|.x.1001| Int) (|.x.1005| Int) (|.x.1007| Int) (|.x.1011| Int) (|.loc.10| Bool) (|.x.1002| Int) (|.x.992| Int) (|.x.1003| Int) (|.x.1012| Int) (|.loc.11| Bool) (|.loc.9| Bool) (|.x.1009| Int) (|.x.1006| Int) (|.x.1004| Int) (|.x.997| Int) (|.loc.12| Bool) (|.x.1010| Int) (|.x.981| (Array Int Int)) (|.x.996| Int) (|.x.1008| Int) (|.x.998| Int) (|.x.1013| Int) (|.x.995| Int) (|.x.994| Int) (|.x.989| Int) (|.x.993| Int) (|.x.987| Int) (|.x.983| Int) (|.x.985| (Array Int Int)) (|.xtv.1| (Array Int Int))) (=> (and (and (and (and .loc.5 .loc.6) (not .loc.7)) (not .loc.8)) (and (and (and (and (and (= D_27 E_27) (not L1_14)) (= J_27 K_27)) (= F_27 G_27)) (= H_27 I_27)) (= B_27 C_27))) (state |A_27| |B_27| |C_27| |D_27| |E_27| |F_27| |G_27| |H_27| |I_27| |J_27| |K_27| |L_27| |M_27| |N_27| |O_27| |P_27| |Q_27| |R_27| |S_27| |T_27| |U_27| |V_27| |W_27| |X_27| |Y_27| |Z_27| |A1_27| |B1_27| |C1_27| |D1_27| |E1_27| |F1_27| |G1_27| |H1_27| |I1_27| |J1_27| |L1_14| |.loc.5| |.loc.6| |.loc.7| |.loc.8| |L1_0|))))
(assert (forall ((|A_27| Int) (|B_27| (Array Int Int)) (|C_27| (Array Int Int)) (|D_27| (Array Int Int)) (|E_27| (Array Int Int)) (|F_27| Int) (|G_27| Int) (|H_27| (Array Int Int)) (|I_27| (Array Int Int)) (|J_27| Int) (|K_27| Int) (|L_27| Int) (|M_27| Int) (|N_27| Int) (|O_27| Int) (|P_27| Int) (|Q_27| Int) (|R_27| Int) (|S_27| Int) (|T_27| Int) (|U_27| Int) (|V_27| Int) (|W_27| Int) (|X_27| Int) (|Y_27| Int) (|Z_27| Int) (|A1_27| Int) (|B1_27| Int) (|C1_27| Int) (|D1_27| Int) (|E1_27| Int) (|F1_27| Int) (|G1_27| Int) (|H1_27| Int) (|I1_27| Int) (|J1_27| Int) (|L1_14| Bool) (|.loc.5| Bool) (|.loc.6| Bool) (|.loc.7| Bool) (|.loc.8| Bool) (|L1_0| (Array Int Int)) (|.x.988| Int) (|.x.986| (Array Int Int)) (|.x.984| Int) (|.x.982| (Array Int Int)) (|.x.978| Int) (|.x.980| (Array Int Int)) (|.x.979| (Array Int Int)) (|K1_27| Bool) (|.x.990| Int) (|.x.991| Int) (|.x.999| Int) (|.x.1000| Int) (|.x.1001| Int) (|.x.1005| Int) (|.x.1007| Int) (|.x.1011| Int) (|.loc.10| Bool) (|.x.1002| Int) (|.x.992| Int) (|.x.1003| Int) (|.x.1012| Int) (|.loc.11| Bool) (|.loc.9| Bool) (|.x.1009| Int) (|.x.1006| Int) (|.x.1004| Int) (|.x.997| Int) (|.loc.12| Bool) (|.x.1010| Int) (|.x.981| (Array Int Int)) (|.x.996| Int) (|.x.1008| Int) (|.x.998| Int) (|.x.1013| Int) (|.x.995| Int) (|.x.994| Int) (|.x.989| Int) (|.x.993| Int) (|.x.987| Int) (|.x.983| Int) (|.x.985| (Array Int Int)) (|.xtv.1| (Array Int Int))) (=> (and (state |A_27| |B_27| |C_27| |D_27| |E_27| |F_27| |G_27| |H_27| |I_27| |J_27| |K_27| |L_27| |M_27| |N_27| |O_27| |P_27| |Q_27| |R_27| |S_27| |T_27| |U_27| |V_27| |W_27| |X_27| |Y_27| |Z_27| |A1_27| |B1_27| |C1_27| |D1_27| |E1_27| |F1_27| |G1_27| |H1_27| |I1_27| |J1_27| |L1_14| |.loc.5| |.loc.6| |.loc.7| |.loc.8| |L1_0|) (let ((.def_53 (not .loc.7))) (let ((.def_55 (not .loc.8))) (let ((.def_87 (= B_27 .x.979))) (let ((.def_91 (= M_27 .x.990))) (let ((.def_94 (= N_27 .x.991))) (let ((.def_97 (= V_27 .x.999))) (let ((.def_100 (= W_27 .x.1000))) (let ((.def_103 (= X_27 .x.1001))) (let ((.def_106 (= B1_27 .x.1005))) (let ((.def_109 (= D1_27 .x.1007))) (let ((.def_112 (= H1_27 .x.1011))) (let ((.def_114 (not .loc.5))) (let ((.def_127 (= L1_14 K1_27))) (let ((.def_131 (not .loc.6))) (let ((.def_136 (= O_27 0))) (let ((.def_139 (and .def_94 (and .def_87 .def_91)))) (let ((.def_145 (and .def_112 (and .def_109 (and .def_106 (and .def_103 (and .def_100 (and .def_97 .def_139)))))))) (let ((.def_149 (not .loc.10))) (let ((.def_155 (= Y_27 .x.1002))) (let ((.def_157 (= O_27 .x.992))) (let ((.def_160 (= Z_27 .x.1003))) (let ((.def_163 (= I1_27 .x.1012))) (let ((.def_168 (not .loc.9))) (let ((.def_186 (<= 200000 C1_27))) (let ((.def_200 (not .loc.11))) (let ((.def_205 (= F1_27 .x.1009))) (let ((.def_207 (= C1_27 .x.1006))) (let ((.def_216 (and .def_139 .def_157))) (let ((.def_219 (and .def_103 (and .def_100 (and .def_97 .def_216))))) (let ((.def_238 (and .def_106 (and .def_160 (and .def_155 .def_219))))) (let ((.def_253 (and L1_14 .def_87))) (let ((.def_256 (and .def_157 (and .def_94 (and .def_91 .def_253))))) (let ((.def_267 (and .def_163 (and .def_112 (and .def_205 (and .def_109 (and .def_207 (and .def_106 (and .def_160 (and .def_155 (and .def_103 (and .def_100 (and .def_97 .def_256))))))))))))) (let ((.def_282 (and .def_163 (and .def_112 (and .def_205 (and .def_109 (and .def_207 .def_238))))))) (let ((.def_310 (<= 200000 A1_27))) (let ((.def_311 (or L1_14 .def_310))) (let ((.def_315 (= A1_27 .x.1004))) (let ((.def_317 (= T_27 .x.997))) (let ((.def_330 (= (+ A1_27 (* (- 1) .x.1004)) (- 1)))) (let ((.def_331 (or L1_14 .def_330))) (let ((.def_338 (and .def_216 .def_317))) (let ((.def_343 (and .def_160 (and .def_155 (and .def_103 (and .def_100 (and .def_97 .def_338))))))) (let ((.def_348 (and .def_205 (and .def_109 (and .def_207 (and .def_106 (and .def_315 .def_343))))))) (let ((.def_350 (and .def_163 (and .def_112 .def_348)))) (let ((.def_359 (not .loc.12))) (let ((.def_401 (= .x.1004 0))) (let ((.def_402 (or L1_14 .def_401))) (let ((.def_406 (= G1_27 .x.1010))) (let ((.def_408 (= D_27 .x.981))) (let ((.def_413 (select D_27 .x.1000))) (let ((.def_416 (select D_27 .x.991))) (let ((.def_421 (= .x.1004 .x.996))) (let ((.def_422 (not .def_421))) (let ((.def_435 (not .def_310))) (let ((.def_436 (or L1_14 .def_435))) (let ((.def_440 (= E1_27 .x.1008))) (let ((.def_444 (select (select D_27 .x.1005) (+ .x.1007 (* 4 .x.1004))))) (let ((.def_469 (and .def_317 (and .def_157 (and .def_94 (and .def_91 (and .def_253 .def_408))))))) (let ((.def_498 (and .def_317 (and .def_157 (and .def_94 (and .def_91 (and .def_87 .def_408))))))) (let ((.def_503 (and .def_160 (and .def_155 (and .def_103 (and .def_100 (and .def_97 .def_498))))))) (let ((.def_525 (= U_27 .x.998))) (let ((.def_551 (and .def_160 (and .def_155 (and .def_103 (and .def_100 (and .def_97 (and .def_498 .def_525)))))))) (let ((.def_572 (= J1_27 .x.1013))) (let ((.def_584 (and .def_160 (and .def_155 (and .def_103 (and .def_100 (and .def_97 (and .def_338 .def_525)))))))) (let ((.def_616 (and .def_572 (and .def_163 (and .def_112 (and .def_406 (and .def_205 (and .def_440 (and .def_109 (and .def_207 (and .def_106 (and .def_315 .def_551)))))))))))) (let ((.def_685 (store D_27 B1_27 (store (select D_27 B1_27) (+ (* 4 A1_27) D1_27) L_27)))) (let ((.def_688 (store .def_685 W_27 (store (select .def_685 W_27) (+ M_27 (* 4 A1_27)) P_27)))) (let ((.def_780 (store L1_0 .x.1005 1))) (let ((.def_784 (store .def_780 .x.1000 1))) (and (and (= K_27 .x.988) (and (= I_27 .x.986) (and (= G_27 .x.984) (and (= E_27 .x.982) (and (= A_27 .x.978) (= C_27 .x.980)))))) (or (and (or (and (or (or (or (or (and (or (or (and (or (or (or (and (or (and (or (or (or (and (or (and (or (or (or (or (or (or (and (or (and (or (and (or (and (and (and (and (and (and (and (and (and (and .def_87 K1_27) .def_91) .def_94) .def_97) .def_100) .def_103) .def_106) .def_109) .def_112) .def_114) (and (or L1_14 (and (= .x.979 (store (store (store B_27 B1_27 0) W_27 0) N_27 0)) (= .x.1011 0))) (and (and .loc.5 (or K1_27 (= .x.1001 .x.1011))) .def_127))) (and (and .loc.7 .def_131) .loc.10)) (and (or L1_14 .def_136) (and .def_53 (and (and .def_127 (and .loc.6 (and .loc.5 .def_145))) .def_149)))) (and (and (and (and (and .def_155 .def_157) .def_160) .def_163) .loc.11) .def_168)) (and (or L1_14 (and (= .x.1002 (select (select D_27 W_27) (+ M_27 (* 4 C1_27)))) (and (= .x.1003 (select (select D_27 N_27) (+ V_27 (* 4 C1_27)))) (and (= .x.1012 (ite (= .x.1002 .x.1003) 1 0)) (and (not .def_186) (= .x.992 .x.1012)))))) (and (and .def_53 (and .def_127 (and .loc.10 (and .loc.9 (and .def_114 (and .loc.6 .def_145)))))) .def_200))) (and .loc.8 (and .def_205 .def_207))) (and (or K1_27 (= (+ C1_27 (* (- 1) .x.1006)) (- 1))) (and .def_55 (and .def_200 (and .def_53 (and .def_127 (and .def_168 (and .loc.10 (and .def_131 (and .def_114 (and .def_163 (and .def_112 (and .def_109 (and .def_106 .def_219)))))))))))))) (and (or L1_14 (= .x.1006 0)) (and .def_200 (and .def_53 (and .def_127 (and .def_168 (and .loc.10 (and .def_131 (and .loc.8 (and .loc.5 (and .def_163 (and .def_112 (and .def_205 (and .def_109 .def_238)))))))))))))) (and .def_53 (and .def_149 (and .def_127 (and .loc.11 (and .loc.9 (and .def_114 (and .loc.8 (and .loc.6 .def_267))))))))) (and (or L1_14 .def_186) (and .def_53 (and .def_149 (and .def_127 (and .loc.11 (and .loc.9 (and .def_114 (and .loc.8 (and .loc.6 .def_282)))))))))) (and .def_200 (and .def_53 (and .def_149 (and .def_127 (and .loc.9 (and .def_131 (and .def_114 (and .loc.8 .def_267))))))))) (and (and .def_200 (and .def_53 (and .def_149 (and .def_127 (and .loc.9 (and .def_131 (and .def_114 (and .loc.8 .def_282)))))))) .def_311)) (and .def_315 .def_317)) (and (and .def_55 (and .def_200 (and .def_53 (and .def_149 (and .def_127 (and .def_168 (and .def_131 (and .loc.5 .def_282)))))))) .def_331)) .loc.12) (and (or L1_14 (not .def_136)) (and (and .def_200 (and .def_53 (and .def_149 (and .def_127 (and .def_168 (and .loc.8 (and .loc.6 (and .loc.5 .def_350)))))))) .def_359))) (and .def_359 (and .def_200 (and .def_149 (and .def_127 (and .def_168 (and .def_131 (and .def_114 (and .loc.8 (and .loc.7 (and .def_163 (and .def_112 (and .def_205 (and .def_109 (and .def_207 (and .def_106 (and .def_315 (and .def_160 (and .def_155 (and .def_103 (and .def_100 (and .def_97 (and .def_256 .def_317))))))))))))))))))))))) (and (and .def_55 (and .def_200 (and .def_149 (and .def_127 (and .def_168 (and .loc.12 (and .loc.7 (and .loc.6 (and .loc.5 (and .def_163 (and .def_112 (and .def_205 (and .def_109 (and .def_207 (and .def_106 .def_343))))))))))))))) .def_402)) (and .def_406 .def_408)) (and (and (or K1_27 (and (= .x.981 (store D_27 .x.991 (store .def_416 (+ .x.999 (* 4 .x.1004)) (select .def_413 (+ .x.990 (* 4 .x.1004)))))) .def_422)) (and .def_359 (and .def_200 (and .def_53 (and .def_149 (and .def_127 (and .loc.9 (and .def_131 (and .def_114 (and .loc.8 .def_350)))))))))) .def_436)) .def_440) (and (or K1_27 (and .def_421 (= .x.981 (store D_27 .x.991 (store .def_416 (+ .x.999 (* 4 .x.1004)) .def_444))))) (and .def_436 (and .def_359 (and .def_200 (and .def_53 (and .def_149 (and .def_127 (and .loc.9 (and .def_131 (and .def_114 (and .loc.8 (and .def_163 (and .def_112 (and .def_348 .def_406))))))))))))))) (and .def_359 (and .def_55 (and .def_127 (and .loc.11 (and .loc.10 (and .loc.9 (and .def_114 (and .loc.7 (and .loc.6 (and .def_163 (and .def_112 (and .def_406 (and .def_205 (and .def_440 (and .def_109 (and .def_207 (and .def_106 (and .def_315 (and .def_160 (and .def_155 (and .def_103 (and .def_100 (and .def_97 .def_469)))))))))))))))))))))))) (and .def_359 (and .def_311 (and .def_55 (and .def_127 (and .loc.11 (and .loc.10 (and .loc.9 (and .def_114 (and .loc.7 (and .loc.6 (and .def_163 (and .def_112 (and .def_406 (and .def_205 (and .def_440 (and .def_109 (and .def_207 (and .def_106 (and .def_315 .def_503)))))))))))))))))))) .def_525) (and .def_359 (and .def_331 (and .def_55 (and .def_53 (and .def_127 (and .def_168 (and .loc.11 (and .loc.10 (and .def_114 (and .loc.6 (and .def_163 (and .def_112 (and .def_406 (and .def_205 (and .def_440 (and .def_109 (and .def_207 (and .def_106 .def_503))))))))))))))))))) (and .def_402 (and .def_359 (and .def_55 (and .def_127 (and .def_168 (and .loc.11 (and .loc.10 (and .def_131 (and .loc.7 (and .loc.5 (and .def_163 (and .def_112 (and .def_406 (and .def_205 (and .def_440 (and .def_109 (and .def_207 (and .def_106 .def_551))))))))))))))))))) .def_572) (and (or K1_27 (and .def_422 (= .x.981 (store D_27 .x.1000 (store .def_413 (+ .x.990 (* 4 .x.1004)) .def_444))))) (and .def_436 (and .def_359 (and .def_55 (and .def_200 (and .def_127 (and .def_168 (and .loc.10 (and .def_114 (and .loc.7 (and .loc.6 (and .def_163 (and .def_112 (and .def_406 (and .def_205 (and .def_440 (and .def_109 (and .def_207 (and .def_106 (and .def_315 .def_584))))))))))))))))))))) (and (or K1_27 .def_421) (and .def_436 (and .def_359 (and .def_55 (and .def_200 (and .def_127 (and .def_168 (and .loc.10 (and .def_114 (and .loc.7 (and .loc.6 .def_616)))))))))))) (and .def_359 (and .def_55 (and .def_149 (and .def_127 (and .loc.11 (and .loc.9 (and .def_131 (and .def_114 (and .loc.7 (and .def_572 (and .def_163 (and .def_112 (and .def_406 (and .def_205 (and .def_440 (and .def_109 (and .def_207 (and .def_106 (and .def_315 (and .def_160 (and .def_155 (and .def_103 (and .def_100 (and .def_97 (and .def_469 .def_525)))))))))))))))))))))))))) (and .def_359 (and .def_311 (and .def_55 (and .def_149 (and .def_127 (and .loc.11 (and .loc.9 (and .def_131 (and .def_114 (and .loc.7 .def_616))))))))))) (and (= R_27 .x.995) (and (= Q_27 .x.994) (and (= L_27 .x.989) (= P_27 .x.993))))) (and (or L1_14 (and (= .x.981 (store .def_688 N_27 (store (select .def_688 N_27) (+ V_27 (* 4 A1_27)) Q_27))) (and (<= (- 2147483648) Q_27) (and (<= (- 2147483648) L_27) (and (<= (- 2147483648) P_27) (and .def_435 (and (<= Q_27 2147483647) (and (<= P_27 2147483647) (<= L_27 2147483647))))))))) (and (or K1_27 .def_330) (and .def_359 (and .def_55 (and .def_149 (and .def_127 (and .def_168 (and .loc.11 (and .def_131 (and .def_114 (and .loc.7 (and .def_572 (and .def_163 (and .def_112 (and .def_406 (and .def_205 (and .def_440 (and .def_109 (and .def_207 (and .def_106 .def_584))))))))))))))))))))) (and (= S_27 .x.996) (and (= J_27 .x.987) (and (= F_27 .x.983) (= H_27 .x.985))))) (and (or L1_14 (and (and (= .x.987 0) (= .x.983 0)) (= L1_0 (store B_27 0 0)))) (and (or K1_27 (and (and (and (and (and (and (and (and (and .def_401 (and (and (and (and (and (and (not (<= .x.978 .x.1000)) (not (<= .x.978 .x.991))) (not (<= .x.978 .x.1005))) (= .x.990 0)) (= .x.996 150000)) (= .x.999 0)) (= .x.1007 0))) (not (= .x.991 0))) (not (= .x.1000 0))) (not (= .x.1005 0))) (= (select L1_0 .x.1005) 0)) (= (select .def_780 .x.1000) 0)) (= (select .def_784 .x.991) 0)) (= .x.985 (store (store (store H_27 .x.1005 800000) .x.1000 800000) .x.991 800000))) (= .x.979 (store .def_784 .x.991 1)))) (and .def_359 (and .def_55 (and .def_53 (and .def_149 (and .def_127 (and .def_168 (and .loc.11 (and .loc.6 (and .loc.5 (and .def_163 (and .def_103 (and .def_157 .def_408)))))))))))))))))))))))))))))))))))))))))))))))))))))))))))))))))))))))))))))))))))))) (state |.x.978| |.x.979| |.x.980| |.x.981| |.x.982| |.x.983| |.x.984| |.x.985| |.x.986| |.x.987| |.x.988| |.x.989| |.x.990| |.x.991| |.x.992| |.x.993| |.x.994| |.x.995| |.x.996| |.x.997| |.x.998| |.x.999| |.x.1000| |.x.1001| |.x.1002| |.x.1003| |.x.1004| |.x.1005| |.x.1006| |.x.1007| |.x.1008| |.x.1009| |.x.1010| |.x.1011| |.x.1012| |.x.1013| |K1_27| |.loc.9| |.loc.10| |.loc.11| |.loc.12| |.xtv.1|))))
(assert (forall ((|A_27| Int) (|B_27| (Array Int Int)) (|C_27| (Array Int Int)) (|D_27| (Array Int Int)) (|E_27| (Array Int Int)) (|F_27| Int) (|G_27| Int) (|H_27| (Array Int Int)) (|I_27| (Array Int Int)) (|J_27| Int) (|K_27| Int) (|L_27| Int) (|M_27| Int) (|N_27| Int) (|O_27| Int) (|P_27| Int) (|Q_27| Int) (|R_27| Int) (|S_27| Int) (|T_27| Int) (|U_27| Int) (|V_27| Int) (|W_27| Int) (|X_27| Int) (|Y_27| Int) (|Z_27| Int) (|A1_27| Int) (|B1_27| Int) (|C1_27| Int) (|D1_27| Int) (|E1_27| Int) (|F1_27| Int) (|G1_27| Int) (|H1_27| Int) (|I1_27| Int) (|J1_27| Int) (|L1_14| Bool) (|.loc.5| Bool) (|.loc.6| Bool) (|.loc.7| Bool) (|.loc.8| Bool) (|L1_0| (Array Int Int)) (|.x.988| Int) (|.x.986| (Array Int Int)) (|.x.984| Int) (|.x.982| (Array Int Int)) (|.x.978| Int) (|.x.980| (Array Int Int)) (|.x.979| (Array Int Int)) (|K1_27| Bool) (|.x.990| Int) (|.x.991| Int) (|.x.999| Int) (|.x.1000| Int) (|.x.1001| Int) (|.x.1005| Int) (|.x.1007| Int) (|.x.1011| Int) (|.loc.10| Bool) (|.x.1002| Int) (|.x.992| Int) (|.x.1003| Int) (|.x.1012| Int) (|.loc.11| Bool) (|.loc.9| Bool) (|.x.1009| Int) (|.x.1006| Int) (|.x.1004| Int) (|.x.997| Int) (|.loc.12| Bool) (|.x.1010| Int) (|.x.981| (Array Int Int)) (|.x.996| Int) (|.x.1008| Int) (|.x.998| Int) (|.x.1013| Int) (|.x.995| Int) (|.x.994| Int) (|.x.989| Int) (|.x.993| Int) (|.x.987| Int) (|.x.983| Int) (|.x.985| (Array Int Int)) (|.xtv.1| (Array Int Int))) (=> (state |A_27| |B_27| |C_27| |D_27| |E_27| |F_27| |G_27| |H_27| |I_27| |J_27| |K_27| |L_27| |M_27| |N_27| |O_27| |P_27| |Q_27| |R_27| |S_27| |T_27| |U_27| |V_27| |W_27| |X_27| |Y_27| |Z_27| |A1_27| |B1_27| |C1_27| |D1_27| |E1_27| |F1_27| |G1_27| |H1_27| |I1_27| |J1_27| |L1_14| |.loc.5| |.loc.6| |.loc.7| |.loc.8| |L1_0|) (not (and L1_14 (and .loc.8 (and .loc.7 (and .loc.6 (not .loc.5)))))))))
(check-sat)
